NAME: rbg049a.sop
TYPE: SOP
COMMENT: Stacker crane application (Norbert Ascheuer)
DIMENSION: 51
EDGE_WEIGHT_TYPE: EXPLICIT
EDGE_WEIGHT_FORMAT: FULL_MATRIX 
EDGE_WEIGHT_SECTION
51
    0    0    0    0    0    0    0    0    0    0    0    0    0    0    0    0    0    0    0    0    0    0    0    0    0    0    0    0    0    0    0    0    0    0    0    0    0    0    0    0    0    0    0    0    0    0    0    0    0    0 1000000
   -1    0   18   20   18   27   18   18   18    7   20   22   14   11   10   14   14   23   10   24   16   12   12   15   18   14   23   23   19   21   12   12   16   24   18   14   15   18   18   18   21   18   16   23   18   11   24   24   15   21    0
   -1   18    0   20   18   27   18   18   18    7   20   22   14   11   10   14   14   23   10   24   16   12   12   15   18   14   23   23   19   21   12   12   16   24   18   14   15   18   18   18   21   18   16   23   18   11   24   24   15   21    0
   -1   15   10    0   25   23   25   25   25   20   11   22   12   23   18   12   12   12   21   16   24   15   15   24   18   24   11   12   19   21   14   23   24   16   25   12   24   25   25   25   10   25   24   13   25   23   14   16   24   21    0
   -1   -1   -1   -1    0   27   16   16   16   10   21   24   15   11   11   15   15   24    0   25   15   12   12   14   20   12   23   23   21   23   14   12   15   25   16   15   14   16   16   16   23   16   15   23   16   10   24   25   14   23    0
   -1   -1   -1   -1   33    0   33   33   33   27   23   24   24   28   27   24   24   18   28   14   31   25   25   31   23   31   21   20   23   23   25   30   31   14   33   24   31   33   33   33   23   33   31   20   33   28   16   15   31   23    0
   -1   -1   -1   -1   27   16    0   27   27   23   12   24   18   24   23   18   18    0   24   12   27   21   21   26   19   25   11   10   21   23   20   25   27   12   27   18   26   27   27   27   12   27   27   15   27   24   10   15   26   23    0
   -1   -1   -1   -1   -1   -1   18    0   18    7   20   22   14   11   10   14   14   23   10   24   16   12   12   15   18   14   23   23   19   21   12   12   16   24   18   14   15   18   18   18   21   18   16   23   18   11   24   24   15   21    0
   -1   -1   -1   -1   -1   -1   24   24    0   18   10   18   12   21   16   12   12   14   20   18   24   14   14   24   14   23   12   12   15   17   12   23   24   18   24   12   24   24   24   24   11   24   24   12   24   21   15   18   24   17    0
   -1   -1   -1   20   18   27   18   18   18    0   20   22   14   11   10   14   14   23   10   24   16   12   12   15   18   14   23   23   19   21   12   12   16   24   18   14   15   18   18   18   21   18   16   23   18   11   24   24   15   21    0
   -1   -1   -1   11   25   23   25   25   25   20    0   24   12   23   18   12   12   12   21   16   24   15   15   24   19   24   11   12   21   23   14   23   24   16   25   12   24   25   25   25   10   25   24   15   25   23   14   16   24   23    0
   -1   -1   -1   -1   25   23   25   25   25   20    9    0   12   23   18   12   12   12   21   16   24   15   15   24   16   24   11   12   18   20   14   23   24   16   25   12   24   25   25   25   10   25   24   12   25   23   14   16   24   20    0
   -1   -1   -1   -1   23   25   23   23   23   12   15   24    0   14   11   11   11   21   12   23   21    6   11   20   19   18   18   20   21   23   10   16   21   23   23   11   20   23   23   23   16   23   21   20   23   14   23   23   20   23    0
   -1   -1   -1   -1   15   28   15   15   15   11   23   22   16    0   12   16   16   24   10   25   14   14   14   12   21   12   23   24   21   21   15   11   14   25   15   16   12   15   15   15   23   15   14   24   15    1   24   25   12   21    0
   -1   -1   -1   -1    0   31    0    0    0   18   25   24   23   15    0   23   23   27   16   29   10   23   23   11   24   12   26   27   24   24   23   12   14   29    0   23   11    0    0    0   25    0   14   27    0   15   28   29   11   24    0
   -1   -1   -1   -1   23   25   23   23   23   12   15   24   11   14   11    0   11   21   12   23   21    6   11   20   19   18   18   20   21   23   10   16   21   23   23   11   20   23   23   23   16   23   21   20   23   14   23   23   20   23    0
   -1   -1   -1   -1   23   25   23   23   23   12   15   24   11   14   11   11    0   21   12   23   21    6   11   20   19   18   18   20   21   23   10   16   21   23   23   11   20   23   23   23   16   23   21   20   23   14   23   23   20   23    0
   -1   -1   -1   -1   28   15   28   28   28   24   14   15   20   24   23   20   20    0   24   15   27   23   23   27   15   26   15   11   15   15   21   25   27   11   28   20   27   28   28   28   15   28   27   11   28   24   15   11   27   15    0
   -1   -1   -1   -1   14   29   14   14   14   12   23   23   20   11   15   20   20   25    0   27   15   16   16   15   23   15   24   24   23   23   18    4   12   27   14   20   15   14   14   14   24   14   12   24   14   15   25   27   11   23    0
   -1   -1   -1   -1    0   31    0    0    0   18   25   24   23   15   20   23   23   27   16    0   10   23   23   11   24   12   26   27   24   24   23   12   14   29    0   23   11    0    0    0   25    0   14   27    0   15   28   29   11   24    0
   -1   -1   -1   -1    0   31    0    0    0   18   25   24   23   15   20   23   23   27   16   29    0   23   23   11   24   12   26   27   24   24   23   12   14   29    0   23   11    0    0    0   25    0   14   27    0   15   28   29   11   24    0
   -1   -1   -1   -1   23   25   23   23   23   12   15   24   11   14   11   11   11   21   12   23   21    0   11   20   19   18   18   20   21   23   10   16   21   23   23   11   20   23   23   23   16   23   21   20   23   14   23   23   20   23    0
   -1   -1   -1   -1   23   25   23   23   23   12   15   24   11   14   11   11   11   21   12   23   21    6    0   20   19   18   18   20   21   23   10   16   21   23   23   11   20   23   23   23   16   23   21   20   23   14   23   23   20   23    0
   -1   -1   -1   -1    0   31    0    0    0   18   25   24   23   15   20   23   23   27   16   29   10   23   23    0   24   12   26   27   24   24   23   12   14   29    0   23   11    0    0    0   25    0   14   27    0   15   28   29   11   24    0
   -1   -1   -1   -1   25   23   25   25   25   20   11   22   12   23   18   12   12   12   21   16   24   15   15   24    0   24   11   12   19   21   14   23   24   16   25   12   24   25   25   25   10   25   24   13   25   23   14   16   24   21    0
   -1   -1   -1   -1    0   31    0    0    0   18   25   24   23   15   20   23   23   27   16   29   10   23   23   11   24    0   26   27   24   24   23   12   14   29    0   23   11    0    0    0   25    0   14   27    0   15   28   29   11   24    0
   -1   -1   -1   -1   27   18   27   27   27   23   12   12   16   24   23   16   16   15   23   15   26   20   20   25   12   25    0    9   12   12   18   24   26   12   27   16   25   27   27   27   15   27   26    0   27   24   15   12   25   12    0
   -1   -1   -1   -1   26   20   26   26   26   23   12   24   15   23   21   15   15   11   23   14   25   18   18   25   19   24    0    0   21   23   16   24   25   14   26   15   25   26   26   26   10   26   25   15   26   23   12   15   25   23    0
   -1   -1   -1   -1   -1   -1   -1   -1   -1   -1   -1   -1   -1   -1   -1   -1   -1   -1   -1   -1   24   15   15   24   19   24   11   12    0   23   14   23   24   16   25   12   24   25   25   25   10   25   24   15   25   23   14   16   24   23    0
   -1   -1   -1   -1   -1   -1   -1   -1   -1   -1   -1   -1   -1   -1   -1   -1   -1   -1   -1   -1   -1   -1   -1   24   16   24   11   12   18    0   14   23   24   16   25   12   24   25   25   25   10   25   24   12   25   23   14   16   24   20    0
   -1   -1   -1   -1   20   26   20   20   20   10   18   24   12   12    0   12   12   23   11   24   18   11   11   16   19   15   21   23   21   23    0   14   18   24   20   12   16   20   20   20   20   20   18   23   20   12   23   24   16   23    0
   -1   -1   -1   -1   29   15   29   29   29   24   16   24   23   25   24   23   23   12   25    0   28   23   23   28   19   27   14   12   21   23   23    0   28   10   29   23   28   29   29   29   15   29   28   15   29   25   11   15   28   23    0
   -1   -1   -1   -1   10   31   10   10   10   16   24   24   23   14   18   23   23   27   15   28    0   21   21   10   24   11   25   26   24   24   23   12    0   28   10   23   10   10   10   10   25   10   15   26   10   14   27   28   10   24    0
   -1   -1   -1   -1   11   31   11   11   11   15   24   24   23   12   16   23   23   26   14   28   10   20   20    0   24   10   25   25   24   24   21   11   15    0   11   23    0   11   11   11   24   11   15   25   11   12   27   28    6   24    0
   -1   -1   -1   -1   -1   -1   -1   -1   -1   -1   -1   -1   -1   -1   -1   -1   -1   -1   -1   -1   -1   -1   -1   -1   -1   -1   -1   -1   -1   -1   -1   -1   -1   -1    0   12   24   24   24   24   11   24   24   12   24   21   15   18   24   20    0
   -1   -1   -1   -1   12   30   12   12   12   14   24   24   21   12   15   21   21   25   12   27   11   18   18   10   23    0   24   25   23   23   20   10   15   27   12    0   10   12   12   12   24   12   15   25   12   12   26   27   10   23    0
   -1   -1   -1   -1   -1   -1   -1   -1   -1   -1   -1   -1   -1   -1   -1   -1   -1   -1   -1   -1   -1   -1   -1   -1   -1   -1   -1   -1   -1   -1   -1   -1   -1   -1    0   -1    0    0    0    0   25    0   14   27    0   15   28   29   11   24    0
   -1   -1   -1   -1   -1   -1   -1   -1   -1   -1   -1   -1   -1   -1   -1   -1   -1   -1   -1   -1   -1   -1   -1   -1   -1   -1   -1   -1   -1   -1   -1   -1   -1   -1   18   -1   15    0   18   18   21   18   16   23   18   11   24   24   15   18    0
   -1   -1   -1   -1   -1   -1   -1   -1   -1   -1   -1   -1   -1   -1   -1   -1   -1   -1   -1   -1   -1   -1   -1   -1   -1   -1   -1   -1   -1   -1   -1   -1   -1   -1   24   -1   24   24    0   24   11   24   24   12   24   21   15   18   24   17    0
   -1   -1   -1   -1   -1   -1   -1   -1   -1   -1   -1   -1   -1   -1   -1   -1   -1   -1   -1   -1   -1   -1   -1   -1   -1   -1   -1   -1   -1   -1   -1   -1   -1   -1   23   -1   23   23   23    0   14   23   23   16   23   16   20   23   23   12    0
   -1   -1   -1   -1   -1   -1   -1   -1   -1   -1   -1   -1   -1   -1   -1   -1   -1   -1   -1   -1   -1   -1   -1   -1   -1   -1   -1   -1   -1   -1   -1   -1   -1   -1    0   -1   11    0    0    0    0    0   14   27    0   15   28   29   11   24    0
   -1   -1   -1   -1   -1   -1   -1   -1   -1   -1   -1   -1   -1   -1   -1   -1   -1   -1   -1   -1   -1   -1   -1   -1   -1   -1   -1   -1   -1   -1   -1   -1   -1   -1   25   -1   24   25   25   25   10    0   24   15   25   23   14   16   24   23    0
   -1   -1   -1   -1   -1   -1   -1   -1   -1   -1   -1   -1   -1   -1   -1   -1   -1   -1   -1   -1   -1   -1   -1   -1   -1   -1   -1   -1   -1   -1   -1   -1   -1   -1   11   -1    0   11   11   11   24   11    0   25   11   12   27   28    6   24    0
   -1   -1   -1   -1   -1   -1   -1   -1   -1   -1   -1   -1   -1   -1   -1   -1   -1   -1   -1   -1   -1   -1   -1   -1   -1   -1   -1   -1   -1   -1   -1   -1   -1   -1   25   -1   24   25   25   25    0   25   25    0   25   23   12   15   24   23    0
   -1   -1   -1   -1   -1   -1   -1   -1   -1   -1   -1   -1   -1   -1   -1   -1   -1   -1   -1   -1   -1   -1   -1   -1   -1   -1   -1   -1   -1   -1   -1   -1   -1   -1   -1   -1   24   25   25   25   10   25   24   12    0   23   14   16   24   17    0
   -1   -1   -1   -1   -1   -1   -1   -1   -1   -1   -1   -1   -1   -1   -1   -1   -1   -1   -1   -1   -1   -1   -1   -1   -1   -1   -1   -1   -1   -1   -1   -1   -1   -1   -1   -1   11    0    0    0   25    0   14   27    0    0   28   29   11   24    0
   -1   -1   -1   -1   -1   -1   -1   -1   -1   -1   -1   -1   -1   -1   -1   -1   -1   -1   -1   -1   -1   -1   -1   -1   -1   -1   -1   -1   -1   -1   -1   -1   -1   -1   -1   -1   -1    0    0    0   25    0   -1   27    0   15    0   29   11   24    0
   -1   -1   -1   -1   -1   -1   -1   -1   -1   -1   -1   -1   -1   -1   -1   -1   -1   -1   -1   -1   -1   -1   -1   -1   -1   -1   -1   -1   -1   -1   -1   -1   -1   -1   -1   -1   12   15   15   15   23   15   15   24   15    0   24    0   12   23    0
   -1   -1   -1   -1   -1   -1   -1   -1   -1   -1   -1   -1   -1   -1   -1   -1   -1   -1   -1   -1   -1   -1   -1   -1   -1   -1   -1   -1   -1   -1   -1   -1   -1   -1   -1   -1   -1   28   28   28   12   28   -1   15   28   24    0   15    0   23    0
   -1   -1   -1   -1   -1   -1   -1   -1   -1   -1   -1   -1   -1   -1   -1   -1   -1   -1   -1   -1   -1   -1   -1   -1   -1   -1   -1   -1   -1   -1   -1   -1   -1   -1   -1   -1   -1   -1   -1   -1   -1   25   -1   -1   25   23   14   16   24    0    0
   -1   -1   -1   -1   -1   -1   -1   -1   -1   -1   -1   -1   -1   -1   -1   -1   -1   -1   -1   -1   -1   -1   -1   -1   -1   -1   -1   -1   -1   -1   -1   -1   -1   -1   -1   -1   -1   -1   -1   -1   -1   -1   -1   -1   -1   -1   -1   -1   -1   -1    0
